Gurobi 12.0.3:   lim:time = 14400

  mip:bestbound = 1

Set parameter LogToConsole to value 1

  tech:outlev = 1

Set parameter Cuts to value 3

  cut:cuts = 3

Set parameter Presolve to value 2

  pre:solve = 2

Set parameter MIPFocus to value 2

  mip:focus = 2

Set parameter Symmetry to value 2

  mip:symmetry = 2

Set parameter InfUnbdInfo to value 1

Gurobi Optimizer version 12.0.3 build v12.0.3rc0 (win64 - Windows 11.0 (26100.2))



CPU model: 12th Gen Intel(R) Core(TM) i7-12700, instruction set [SSE2|AVX|AVX2]

Thread count: 12 physical cores, 20 logical processors, using up to 20 threads



Non-default parameters:

TimeLimit  14400

MIPFocus  2

Symmetry  2

Cuts  3

InfUnbdInfo  1

Presolve  2



Optimize a model with 212 rows, 295 columns and 1547 nonzeros

Model fingerprint: 0x274f0d0f

Model has 3 quadratic objective terms

Model has 6 quadratic constraints

Variable types: 28 continuous, 267 integer (0 binary)

Coefficient statistics:

  Matrix range     [1e+00, 1e+05]

  QMatrix range    [1e+00, 1e+00]

  QLMatrix range   [1e+00, 1e+01]

  Objective range  [3e+00, 1e+02]

  QObjective range [2e+00, 2e+00]

  Bounds range     [1e+00, 1e+02]

  RHS range        [1e+00, 1e+05]

  QRHS range       [1e+02, 1e+02]

Presolve removed 27 rows and 46 columns

Presolve time: 0.02s

Presolved: 361 rows, 415 columns, 2239 nonzeros

Variable types: 70 continuous, 345 integer (305 binary)

Found heuristic solution: objective 70.6700000

Root relaxation presolve removed 15 rows and 2 columns

Root relaxation presolved: 266 rows, 338 columns, 2383 nonzeros





Root relaxation: objective 2.937838e+01, 40 iterations, 0.00 seconds (0.00 work units)



    Nodes    |    Current Node    |     Objective Bounds      |     Work

 Expl Unexpl |  Obj  Depth IntInf | Incumbent    BestBd   Gap | It/Node Time



     0     0   29.37838    0   21   70.67000   29.37838  58.4%     -    0s

     0     0   42.94526    0   16   70.67000   42.94526  39.2%     -    0s

     0     0   54.91166    0    6   70.67000   54.91166  22.3%     -    0s

     0     0   54.91166    0    7   70.67000   54.91166  22.3%     -    0s

     0     0   54.91166    0    8   70.67000   54.91166  22.3%     -    0s

     0     0   70.67000    0    8   70.67000   70.67000  0.00%     -    0s



Cutting planes:

  Learned: 4

  Implied bound: 4



Explored 1 nodes (135 simplex iterations) in 0.08 seconds (0.05 work units)

Thread count was 20 (of 20 available processors)



Solution count 1: 70.67 



Optimal solution found (tolerance 1.00e-04)

Best objective 7.067000000000e+01, best bound 7.067000000000e+01, gap 0.0000%



AMPL MP initial flat model has 295 variables (0 integer, 267 binary);

Objectives: 1 quadratic; 

Constraints:  212 linear; 6 quadratic;



AMPL MP final model has 295 variables (0 integer, 267 binary);

Objectives: 1 quadratic; 

Constraints:  212 linear; 6 quadratic;





-----RESULTS INFO-----
running_time:  0.20299999999999999
TC.best_bound:  70.66999999999999
TC:  70.67
MIP Gap (%):  2.0108751542665917e-14
=== Vehicle Routes ===
Vehicle 1: 0 → 6
Vehicle 1: 1 → 13
Vehicle 1: 6 → 1
Vehicle 2: 0 → 13

=== Full Vehicle Routes ===
Vehicle 1: 0 → 6 → 1 → 0 (70<100)
Vehicle 2: 0 → 0 (0<100)
Arc used by MRT line: y variables:
MRT used: 6 → 7
Customer assigment to PL: u variables:
2 6
3 6
4 7
5 6
Node is served by regular vehicle: g variables:
1
6
Customer assigment to Home delivery: gm variables:
1
Node total demands: ntd variables:
1 13 1
4 0 0
5 0 0
12 0 0
6 57 1
7 0 0
8 0 0
9 0 0
10 0 0
11 0 0
Customer's demand delivered to PL: l variables:
2
3
4
5
Lockers load <= capacity:
0 <= 78
45 <= 89
12 <= 72
0 <= 72
0 <= 93
0 <= 97
0 <= 85
